c Generated map
c Size: 13 * 13, weights in range: 1 to 10, walls: True, with ratio 0.2
c dim 3 of 3
c
p sp 169 205
c graph contains 169 nodes and 205 arcs
c
a 1 14 7
a 14 1 7
a 3 16 10
a 16 3 10
a 3 4 9
a 4 3 9
a 4 5 1
a 5 4 1
a 5 18 9
a 18 5 9
a 5 6 3
a 6 5 3
a 6 19 9
a 19 6 9
a 6 7 3
a 7 6 3
a 7 20 7
a 20 7 7
a 7 8 10
a 8 7 10
a 8 21 8
a 21 8 8
a 8 9 3
a 9 8 3
a 9 22 8
a 22 9 8
a 12 25 10
a 25 12 10
a 12 13 10
a 13 12 10
a 14 27 9
a 27 14 9
a 14 15 5
a 15 14 5
a 15 28 7
a 28 15 7
a 15 16 6
a 16 15 6
a 16 29 10
a 29 16 10
a 18 31 4
a 31 18 4
a 18 19 3
a 19 18 3
a 19 20 2
a 20 19 2
a 20 33 7
a 33 20 7
a 20 21 2
a 21 20 2
a 21 34 10
a 34 21 10
a 21 22 4
a 22 21 4
a 22 35 7
a 35 22 7
a 24 37 1
a 37 24 1
a 24 25 7
a 25 24 7
a 25 38 5
a 38 25 5
a 27 40 6
a 40 27 6
a 27 28 9
a 28 27 9
a 28 41 8
a 41 28 8
a 28 29 1
a 29 28 1
a 29 42 5
a 42 29 5
a 29 30 2
a 30 29 2
a 30 43 9
a 43 30 9
a 30 31 1
a 31 30 1
a 33 46 2
a 46 33 2
a 33 34 7
a 34 33 7
a 34 47 7
a 47 34 7
a 34 35 7
a 35 34 7
a 35 48 4
a 48 35 4
a 35 36 2
a 36 35 2
a 36 49 9
a 49 36 9
a 36 37 2
a 37 36 2
a 37 50 7
a 50 37 7
a 37 38 4
a 38 37 4
a 38 51 6
a 51 38 6
a 40 53 8
a 53 40 8
a 40 41 6
a 41 40 6
a 41 54 5
a 54 41 5
a 41 42 3
a 42 41 3
a 42 55 3
a 55 42 3
a 42 43 3
a 43 42 3
a 43 56 1
a 56 43 1
a 45 58 4
a 58 45 4
a 45 46 6
a 46 45 6
a 46 59 7
a 59 46 7
a 46 47 4
a 47 46 4
a 47 60 4
a 60 47 4
a 47 48 4
a 48 47 4
a 48 61 10
a 61 48 10
a 48 49 3
a 49 48 3
a 49 62 9
a 62 49 9
a 49 50 10
a 50 49 10
a 50 63 1
a 63 50 1
a 50 51 5
a 51 50 5
a 53 66 2
a 66 53 2
a 53 54 1
a 54 53 1
a 54 55 2
a 55 54 2
a 55 68 3
a 68 55 3
a 55 56 10
a 56 55 10
a 56 69 8
a 69 56 8
a 58 71 3
a 71 58 3
a 58 59 1
a 59 58 1
a 59 72 8
a 72 59 8
a 59 60 8
a 60 59 8
a 60 73 10
a 73 60 10
a 60 61 4
a 61 60 4
a 61 62 6
a 62 61 6
a 62 75 8
a 75 62 8
a 62 63 7
a 63 62 7
a 63 76 2
a 76 63 2
a 66 79 7
a 79 66 7
a 68 81 1
a 81 68 1
a 68 69 10
a 69 68 10
a 69 82 10
a 82 69 10
a 69 70 4
a 70 69 4
a 70 83 8
a 83 70 8
a 70 71 3
a 71 70 3
a 71 84 2
a 84 71 2
a 71 72 3
a 72 71 3
a 72 85 8
a 85 72 8
a 72 73 3
a 73 72 3
a 73 86 2
a 86 73 2
a 75 88 5
a 88 75 5
a 75 76 10
a 76 75 10
a 76 89 2
a 89 76 2
a 78 91 4
a 91 78 4
a 79 92 8
a 92 79 8
a 81 94 9
a 94 81 9
a 81 82 7
a 82 81 7
a 82 95 3
a 95 82 3
a 82 83 10
a 83 82 10
a 83 96 4
a 96 83 4
a 83 84 7
a 84 83 7
a 84 97 3
a 97 84 3
a 84 85 6
a 85 84 6
a 85 98 10
a 98 85 10
a 85 86 1
a 86 85 1
a 86 87 4
a 87 86 4
a 87 100 6
a 100 87 6
a 87 88 3
a 88 87 3
a 88 101 1
a 101 88 1
a 88 89 6
a 89 88 6
a 89 102 9
a 102 89 9
a 89 90 3
a 90 89 3
a 90 103 6
a 103 90 6
a 90 91 4
a 91 90 4
a 92 105 3
a 105 92 3
a 94 107 10
a 107 94 10
a 94 95 5
a 95 94 5
a 95 108 3
a 108 95 3
a 95 96 2
a 96 95 2
a 96 109 4
a 109 96 4
a 96 97 5
a 97 96 5
a 97 98 3
a 98 97 3
a 98 111 7
a 111 98 7
a 100 113 9
a 113 100 9
a 100 101 8
a 101 100 8
a 101 114 9
a 114 101 9
a 101 102 3
a 102 101 3
a 102 103 6
a 103 102 6
a 103 116 6
a 116 103 6
a 105 118 7
a 118 105 7
a 107 120 2
a 120 107 2
a 107 108 9
a 108 107 9
a 108 121 4
a 121 108 4
a 108 109 4
a 109 108 4
a 109 122 4
a 122 109 4
a 111 124 2
a 124 111 2
a 113 126 8
a 126 113 8
a 113 114 1
a 114 113 1
a 114 127 6
a 127 114 6
a 116 129 5
a 129 116 5
a 116 117 6
a 117 116 6
a 117 130 4
a 130 117 4
a 118 119 9
a 119 118 9
a 119 132 1
a 132 119 1
a 119 120 2
a 120 119 2
a 120 121 3
a 121 120 3
a 121 134 2
a 134 121 2
a 121 122 10
a 122 121 10
a 124 125 7
a 125 124 7
a 125 126 5
a 126 125 5
a 126 139 6
a 139 126 6
a 126 127 7
a 127 126 7
a 127 140 6
a 140 127 6
a 127 128 1
a 128 127 1
a 128 141 1
a 141 128 1
a 128 129 1
a 129 128 1
a 129 142 8
a 142 129 8
a 129 130 4
a 130 129 4
a 130 143 6
a 143 130 6
a 132 145 1
a 145 132 1
a 134 147 9
a 147 134 9
a 136 149 10
a 149 136 10
a 139 152 6
a 152 139 6
a 139 140 8
a 140 139 8
a 140 153 3
a 153 140 3
a 140 141 3
a 141 140 3
a 141 154 8
a 154 141 8
a 141 142 4
a 142 141 4
a 142 155 2
a 155 142 2
a 142 143 10
a 143 142 10
a 143 156 9
a 156 143 9
a 144 157 5
a 157 144 5
a 144 145 6
a 145 144 6
a 145 158 5
a 158 145 5
a 145 146 9
a 146 145 9
a 146 159 6
a 159 146 6
a 146 147 6
a 147 146 6
a 147 148 5
a 148 147 5
a 148 149 5
a 149 148 5
a 149 150 3
a 150 149 3
a 150 163 1
a 163 150 1
a 150 151 2
a 151 150 2
a 151 164 6
a 164 151 6
a 151 152 1
a 152 151 1
a 152 165 2
a 165 152 2
a 152 153 7
a 153 152 7
a 153 154 4
a 154 153 4
a 154 167 9
a 167 154 9
a 154 155 1
a 155 154 1
a 155 168 9
a 168 155 9
a 155 156 2
a 156 155 2
a 156 169 8
a 169 156 8
a 157 158 10
a 158 157 10
a 158 159 5
a 159 158 5
a 163 164 9
a 164 163 9
a 164 165 7
a 165 164 7
a 167 168 7
a 168 167 7
a 168 169 5
a 169 168 5
